c FILE /home/rafael/Documents/HappySet/MIHS/inputs/happygen/output/graph_scale_free_k5_p0.3_v50_20241127_082443.txt
c SOURCE This is a scale-free graph formed for the happy graph colouring problem.
c DESCRIPTION It was generated using the problem generator of Rhyd Lewis
c
c GRAPH STATS
c Seed                             = 1229227418
c Number of Nodes                  = 50
c Number of colours k              = 5
c Number of pre-assignments        = 15
c Number of links per new node     = 5
c Density                          = 0.191837
c 
c The degrees of nodes 1 to 50, respectively, are as follows 
c [25, 22, 21, 18, 17, 17, 17, 16, 15, 15, 14, 14, 13, 12, 11, 11, 10, 9, 9, 8, 7, 7, 7, 7, 7, 7, 
c  7, 6, 6, 6, 6, 6, 6, 6, 6, 6, 6, 6, 6, 5, 5, 5, 5, 5, 5, 5, 5, 5, 5, 5] 
c  
p edge 50 235 5
e 1 2
e 1 3
e 1 4
e 1 5
e 1 6
e 1 8
e 1 9
e 1 11
e 1 12
e 1 13
e 1 15
e 1 16
e 1 17
e 1 18
e 1 19
e 1 21
e 1 22
e 1 23
e 1 24
e 1 28
e 1 30
e 1 36
e 1 40
e 1 41
e 1 48
e 2 3
e 2 4
e 2 5
e 2 6
e 2 7
e 2 11
e 2 12
e 2 13
e 2 15
e 2 16
e 2 17
e 2 18
e 2 19
e 2 20
e 2 24
e 2 34
e 2 41
e 2 42
e 2 45
e 2 46
e 2 49
e 3 4
e 3 5
e 3 6
e 3 7
e 3 8
e 3 9
e 3 10
e 3 11
e 3 12
e 3 15
e 3 18
e 3 29
e 3 31
e 3 32
e 3 41
e 3 43
e 3 48
e 3 49
e 3 50
e 4 5
e 4 8
e 4 12
e 4 14
e 4 19
e 4 20
e 4 21
e 4 24
e 4 26
e 4 33
e 4 36
e 4 37
e 4 38
e 4 44
e 4 49
e 5 6
e 5 7
e 5 8
e 5 10
e 5 13
e 5 14
e 5 15
e 5 17
e 5 19
e 5 21
e 5 27
e 5 32
e 5 36
e 6 7
e 6 8
e 6 9
e 6 10
e 6 11
e 6 13
e 6 14
e 6 15
e 6 22
e 6 25
e 6 30
e 6 34
e 6 35
e 7 8
e 7 9
e 7 11
e 7 13
e 7 20
e 7 23
e 7 25
e 7 27
e 7 29
e 7 31
e 7 33
e 7 43
e 7 47
e 8 9
e 8 14
e 8 16
e 8 26
e 8 28
e 8 39
e 8 40
e 8 41
e 8 44
e 8 48
e 9 10
e 9 16
e 9 29
e 9 30
e 9 31
e 9 32
e 9 40
e 9 44
e 9 48
e 9 49
e 10 11
e 10 18
e 10 22
e 10 33
e 10 34
e 10 35
e 10 37
e 10 40
e 10 47
e 10 48
e 10 50
e 11 20
e 11 21
e 11 26
e 11 27
e 11 31
e 11 43
e 11 46
e 11 47
e 12 13
e 12 17
e 12 18
e 12 22
e 12 26
e 12 28
e 12 37
e 12 40
e 12 42
e 12 45
e 13 14
e 13 15
e 13 16
e 13 19
e 13 24
e 13 41
e 13 46
e 14 21
e 14 25
e 14 28
e 14 35
e 14 39
e 14 46
e 14 50
e 15 36
e 15 38
e 15 42
e 15 45
e 15 50
e 16 17
e 16 23
e 16 24
e 16 25
e 16 42
e 16 45
e 17 20
e 17 23
e 17 27
e 17 30
e 17 34
e 18 25
e 18 28
e 18 36
e 18 39
e 19 23
e 19 29
e 19 32
e 19 45
e 20 33
e 20 42
e 20 47
e 21 22
e 21 30
e 22 33
e 22 35
e 23 29
e 23 38
e 24 34
e 24 37
e 25 31
e 25 35
e 26 27
e 26 33
e 26 46
e 27 44
e 27 49
e 28 39
e 29 38
e 30 32
e 31 38
e 32 37
e 34 43
e 35 43
e 36 50
e 37 44
e 38 39
e 39 47
n 5 3
n 12 2
n 15 3
n 19 3
n 20 2
n 21 3
n 24 5
n 25 1
n 28 2
n 29 3
n 33 2
n 40 2
n 43 1
n 46 2
n 49 4
